c WARNING: for repeatability, setting FPU to use double precision
d VARIABLES            119718       
d CONSTRAINTS          534036       
c ============================[ Problem Statistics ]=============================
c |                                                                             |
c |  Number of variables:        119718                                         |
c |  Number of clauses:          534036                                         |
c |  Parse time:                   0.09 s                                       |
c |                                                                             |
c ============================[ Search Statistics ]==============================
c | Conflicts |          ORIGINAL         |          LEARNT          | Progress |
c |           |    Vars  Clauses Literals |    Limit  Clauses Lit/Cl |          |
c ===============================================================================
c |       100 |  102037   483748  1172414 |   177374      100      7 | 14.769 % |
c |       250 |  102037   483748  1172414 |   195111      250     27 | 14.769 % |
c |       475 |  102037   483748  1172414 |   214622      475     41 | 14.769 % |
c |       812 |  102037   483748  1172414 |   236085      812     59 | 14.769 % |
c |      1318 |  102037   483748  1172414 |   259693     1318     67 | 14.769 % |
c |      2077 |  102037   483748  1172414 |   285663     2077     73 | 14.769 % |
c |      3216 |  102037   483748  1172414 |   314229     3216     65 | 14.769 % |
c |      4924 |  102037   483748  1172414 |   345652     4924     64 | 14.769 % |
c |      7486 |  102037   483748  1172414 |   380217     7486     89 | 14.769 % |
c |     11330 |  102037   483748  1172414 |   418239    11330    103 | 14.769 % |
c |     17096 |  102037   483748  1172414 |   460063    17096    107 | 14.769 % |
c |     25745 |  102037   483748  1172414 |   506069    25745    113 | 14.769 % |
c |     38719 |  102037   483748  1172414 |   556676    38719    122 | 14.769 % |
c |     58180 |  102037   483748  1172414 |   612344    58180    140 | 14.769 % |
c |     87372 |  102037   483748  1172414 |   673578    87372    141 | 14.769 % |
c |    131161 |  102025   483689  1172272 |   740936   131160    153 | 14.779 % |
c |    196845 |  102013   483630  1172130 |   815029   196843    168 | 14.789 % |
c |    295371 |  102013   483630  1172130 |   896532   295369    177 | 14.789 % |
c |    443160 |  102011   483612  1172090 |   986186   443153    184 | 14.791 % |
c |    664843 |  101990   483543  1171925 |  1084804   664814    187 | 14.808 % |
c |    997368 |  101815   482874  1170390 |  1193285   994913    172 | 14.954 % |
c ===============================================================================
c restarts              : 2078
c conflicts             : 1135224        (1277 /sec)
c decisions             : 4144015        (0.00 % random) (4661 /sec)
c propagations          : 1781538161     (2003936 /sec)
c conflict literals     : 199857096      (29.78 % deleted)
d RESTARTS             2078
d FAILURES             1135224      
d NODES                4144015      
d BACKTRACKS           4144015      
d PROPAGATIONS         1781538161   
d NOGOODSIZE           176.05 
d MEMORY               997.00 
d TIME                 889.02 

s UNSATISFIABLE
